interdiction/MCDM/NO_CORR/GEN_FROM_60/10_ITEMS_1000_GEN/K5011W12.KNP.mps
NAME          BLANK   
ROWS
 N  OBJROW
 L  R0000000
COLUMNS
    C0000000  OBJROW     -1000.        R0000000  786.        
    C0000001  OBJROW     -11.          R0000000  673.        
    C0000002  OBJROW     -975.         R0000000  367.        
    C0000003  OBJROW     -604.         R0000000  129.        
    C0000004  OBJROW     -910.         R0000000  119.        
    C0000005  OBJROW     -276.         R0000000  839.        
    C0000006  OBJROW     -253.         R0000000  844.        
    C0000007  OBJROW     -237.         R0000000  309.        
    C0000008  OBJROW     -429.         R0000000  118.        
    C0000009  OBJROW     -53.          R0000000  13.         
    C0000010  OBJROW     -227.         R0000000  845.        
RHS
    RHS       R0000000  13900.      
BOUNDS
 BV BOUND     C0000000  1.          
 BV BOUND     C0000001  1.          
 BV BOUND     C0000002  1.          
 BV BOUND     C0000003  1.          
 BV BOUND     C0000004  1.          
 BV BOUND     C0000005  1.          
 BV BOUND     C0000006  1.          
 BV BOUND     C0000007  1.          
 BV BOUND     C0000008  1.          
 BV BOUND     C0000009  1.          
 BV BOUND     C0000010  1.          
ENDATA
