data/MCDM/NO_CORR/GEN_FROM_60/10_ITEMS_1000_GEN/K5011W12.KNP.txt
N 11
M 12
LC 11
LC 12
LC 13
LC 14
LC 15
LC 16
LC 17
LC 18
LC 19
LC 20
LC 21
LR 1
LR 2
LR 3
LR 4
LR 5
LR 6
LR 7
LR 8
LR 9
LR 10
LR 11
LR 12
LO -1000
LO -11
LO -975
LO -604
LO -910
LO -276
LO -253
LO -237
LO -429
LO -53
LO -227
OS 1
IC 482
IC 97
IC 18
IC 770
IC 460
IC 169
IC 346
IC 127
IC 684
IC 157
IC 894
IB 2102
